output/hibernation_ilp.lp
Maximize
  0.0148112202291154 Z_377_0_0 + 0.6274043935055873 Z_377_0_1
   + 6.2185082918586924e-04 Z_377_0_2 + 0.0104530556008044 Z_377_0_3
   + 0.246709479835307 Z_377_0_4 + 0.01636359708473 Z_443_0_0
   + 0.1307640881838611 Z_443_0_1 + 0.0070433279115239 Z_443_0_2
   + 0.0379484624184714 Z_443_0_3 + 0.7078805244014136 Z_443_0_4
   + 6.2386882822167958e-04 Z_523_1_0 + 0.00491916715464719 Z_523_1_1
   + 0.1124752591343346 Z_523_1_2 + 0.0154049763874099 Z_523_1_3
   + 0.7665767284953867 Z_523_1_4 + 0.0767809919211479 Z_523_3_0
   + 0.1431870939346124 Z_523_3_1 + 0.0461756647565972 Z_523_3_2
   + 0.0299222186792549 Z_523_3_3 + 0.6039340307083878 Z_523_3_4
   + 0.016228800170135 Z_523_2_0 + 0.2189867815624914 Z_523_2_1
   + 0.0236604328251913 Z_523_2_2 + 0.02513632210498 Z_523_2_3
   + 0.6159876633372023 Z_523_2_4 + 0.0104388245732373 Z_523_0_0
   + 0.4758179395285725 Z_523_0_1 + 0.00183316238256851 Z_523_0_2
   + 0.0140670756302066 Z_523_0_3 + 0.3978429978854152 Z_523_0_4
   + 4.56164e-05 Z_746_0_0 + 0.00299912249586768 Z_746_0_1
   + 0.0612508075389391 Z_746_0_2 + 0.7983752113711782 Z_746_0_3
   + 0.0373292421505793 Z_746_0_4 + 2.2864781991883436e-04 Z_605_3_0
   + 0.00372888801043182 Z_605_3_1 + 0.0717985588183738 Z_605_3_2
   + 0.00141058361252967 Z_605_3_3 + 0.8228333217387459 Z_605_3_4
   + 0.0071493411336398 Z_605_2_0 + 0.00623770218817118 Z_605_2_1
   + 0.2855969534981059 Z_605_2_2 + 0.00427106648308937 Z_605_2_3
   + 0.5967449366969938 Z_605_2_4 + 0.00095609 Z_605_1_0
   + 0.0011509547016235 Z_605_1_1 + 0.00735379500276624 Z_605_1_2
   + 0.00357728056126522 Z_605_1_3 + 0.8869618796928274 Z_605_1_4
   + 0.2125576309933901 Z_605_5_0 + 0.0840560261933274 Z_605_5_1
   + 0.0131158733739706 Z_605_5_2 + 6.1143589810151733e-04 Z_605_5_3
   + 0.5896590335412105 Z_605_5_4 + 0.00921300204128759 Z_605_0_0
   + 0.101974680653848 Z_605_0_1 + 0.0129188351309968 Z_605_0_2
   + 0.0592618239939283 Z_605_0_3 + 0.7166316581799395 Z_605_0_4
   + 2.2864781991883436e-04 Z_605_4_0 + 0.00372888801043182 Z_605_4_1
   + 0.0717985588183738 Z_605_4_2 + 0.00141058361252967 Z_605_4_3
   + 0.8228333217387459 Z_605_4_4 + 0.00242697876921696 Z_383_1_0
   + 0.0156898802461505 Z_383_1_1 + 0.0611435267027898 Z_383_1_2
   + 0.0153725482752755 Z_383_1_3 + 0.8053670660065673 Z_383_1_4
   + 0.00347913714128079 Z_383_3_0 + 0.268623393536129 Z_383_3_1
   + 0.000906477 Z_383_3_2 + 0.00392830711643818 Z_383_3_3
   + 0.6230626852868714 Z_383_3_4 + 0.00242697876921696 Z_383_2_0
   + 0.0156898802461505 Z_383_2_1 + 0.0611435267027898 Z_383_2_2
   + 0.0153725482752755 Z_383_2_3 + 0.8053670660065673 Z_383_2_4
   + 0.00514268466102087 Z_262_0_0 + 0.6679972419252593 Z_262_0_1
   + 0.00734111 Z_262_0_2 + 0.0131055297531397 Z_262_0_3
   + 0.2064134336463654 Z_262_0_4 + 0.000107054 Z_472_0_0
   + 7.1256776893249276e-04 Z_472_0_1 + 0.0419082892753275 Z_472_0_2
   + 0.805472981950916 Z_472_0_3 + 0.0517991069287651 Z_472_0_4
   + 0.00105881268452802 Z_8_0_0 + 0.00335859833283236 Z_8_0_1
   + 0.1466700917509844 Z_8_0_2 + 0.0893029232929318 Z_8_0_3
   + 0.6596095739387233 Z_8_0_4 + 0.0123339156534509 Z_569_0_0
   + 0.809151104131496 Z_569_0_1 + 0.00255857764158828 Z_569_0_2
   + 0.00521231030525401 Z_569_0_3 + 0.0707440922682109 Z_569_0_4
Subject To
 constraint1_3770: Z_377_0_0 + Z_377_0_1 + Z_377_0_2 + Z_377_0_3
   + Z_377_0_4 <= 1
 constraint1_4430: Z_443_0_0 + Z_443_0_1 + Z_443_0_2 + Z_443_0_3
   + Z_443_0_4 <= 1
 constraint1_5231: Z_523_1_0 + Z_523_1_1 + Z_523_1_2 + Z_523_1_3
   + Z_523_1_4 <= 1
 constraint1_5233: Z_523_3_0 + Z_523_3_1 + Z_523_3_2 + Z_523_3_3
   + Z_523_3_4 <= 1
 constraint1_5232: Z_523_2_0 + Z_523_2_1 + Z_523_2_2 + Z_523_2_3
   + Z_523_2_4 <= 1
 constraint1_5230: Z_523_0_0 + Z_523_0_1 + Z_523_0_2 + Z_523_0_3
   + Z_523_0_4 <= 1
 constraint1_7460: Z_746_0_0 + Z_746_0_1 + Z_746_0_2 + Z_746_0_3
   + Z_746_0_4 <= 1
 constraint1_6053: Z_605_3_0 + Z_605_3_1 + Z_605_3_2 + Z_605_3_3
   + Z_605_3_4 <= 1
 constraint1_6052: Z_605_2_0 + Z_605_2_1 + Z_605_2_2 + Z_605_2_3
   + Z_605_2_4 <= 1
 constraint1_6051: Z_605_1_0 + Z_605_1_1 + Z_605_1_2 + Z_605_1_3
   + Z_605_1_4 <= 1
 constraint1_6055: Z_605_5_0 + Z_605_5_1 + Z_605_5_2 + Z_605_5_3
   + Z_605_5_4 <= 1
 constraint1_6050: Z_605_0_0 + Z_605_0_1 + Z_605_0_2 + Z_605_0_3
   + Z_605_0_4 <= 1
 constraint1_6054: Z_605_4_0 + Z_605_4_1 + Z_605_4_2 + Z_605_4_3
   + Z_605_4_4 <= 1
 constraint1_3831: Z_383_1_0 + Z_383_1_1 + Z_383_1_2 + Z_383_1_3
   + Z_383_1_4 <= 1
 constraint1_3833: Z_383_3_0 + Z_383_3_1 + Z_383_3_2 + Z_383_3_3
   + Z_383_3_4 <= 1
 constraint1_3832: Z_383_2_0 + Z_383_2_1 + Z_383_2_2 + Z_383_2_3
   + Z_383_2_4 <= 1
 constraint1_2620: Z_262_0_0 + Z_262_0_1 + Z_262_0_2 + Z_262_0_3
   + Z_262_0_4 <= 1
 constraint1_4720: Z_472_0_0 + Z_472_0_1 + Z_472_0_2 + Z_472_0_3
   + Z_472_0_4 <= 1
 constraint1_80: Z_8_0_0 + Z_8_0_1 + Z_8_0_2 + Z_8_0_3 + Z_8_0_4 <= 1
 constraint1_5690: Z_569_0_0 + Z_569_0_1 + Z_569_0_2 + Z_569_0_3
   + Z_569_0_4 <= 1
 constraint2_3770: Z_377_0_0 <= 1
 constraint2_3771: Z_377_0_1 <= 1
 constraint2_3772: Z_377_0_2 <= 1
 constraint2_3773: Z_377_0_3 <= 1
 constraint2_4430: Z_443_0_0 <= 1
 constraint2_4431: Z_443_0_1 <= 1
 constraint2_4432: Z_443_0_2 <= 1
 constraint2_4433: Z_443_0_3 <= 1
 constraint2_5230: Z_523_1_0 + Z_523_3_0 + Z_523_2_0 + Z_523_0_0 <= 1
 constraint2_5231: Z_523_1_1 + Z_523_3_1 + Z_523_2_1 + Z_523_0_1 <= 1
 constraint2_5232: Z_523_1_2 + Z_523_3_2 + Z_523_2_2 + Z_523_0_2 <= 1
 constraint2_5233: Z_523_1_3 + Z_523_3_3 + Z_523_2_3 + Z_523_0_3 <= 1
 constraint2_7460: Z_746_0_0 <= 1
 constraint2_7461: Z_746_0_1 <= 1
 constraint2_7462: Z_746_0_2 <= 1
 constraint2_7463: Z_746_0_3 <= 1
 constraint2_6050: Z_605_3_0 + Z_605_2_0 + Z_605_1_0 + Z_605_5_0
   + Z_605_0_0 + Z_605_4_0 <= 1
 constraint2_6051: Z_605_3_1 + Z_605_2_1 + Z_605_1_1 + Z_605_5_1
   + Z_605_0_1 + Z_605_4_1 <= 1
 constraint2_6052: Z_605_3_2 + Z_605_2_2 + Z_605_1_2 + Z_605_5_2
   + Z_605_0_2 + Z_605_4_2 <= 1
 constraint2_6053: Z_605_3_3 + Z_605_2_3 + Z_605_1_3 + Z_605_5_3
   + Z_605_0_3 + Z_605_4_3 <= 1
 constraint2_3830: Z_383_1_0 + Z_383_3_0 + Z_383_2_0 <= 1
 constraint2_3831: Z_383_1_1 + Z_383_3_1 + Z_383_2_1 <= 1
 constraint2_3832: Z_383_1_2 + Z_383_3_2 + Z_383_2_2 <= 1
 constraint2_3833: Z_383_1_3 + Z_383_3_3 + Z_383_2_3 <= 1
 constraint2_2620: Z_262_0_0 <= 1
 constraint2_2621: Z_262_0_1 <= 1
 constraint2_2622: Z_262_0_2 <= 1
 constraint2_2623: Z_262_0_3 <= 1
 constraint2_7070: <= 1
 constraint2_7071: <= 1
 constraint2_7072: <= 1
 constraint2_7073: <= 1
 constraint2_4720: Z_472_0_0 <= 1
 constraint2_4721: Z_472_0_1 <= 1
 constraint2_4722: Z_472_0_2 <= 1
 constraint2_4723: Z_472_0_3 <= 1
 constraint2_80: Z_8_0_0 <= 1
 constraint2_81: Z_8_0_1 <= 1
 constraint2_82: Z_8_0_2 <= 1
 constraint2_83: Z_8_0_3 <= 1
 constraint2_5690: Z_569_0_0 <= 1
 constraint2_5691: Z_569_0_1 <= 1
 constraint2_5692: Z_569_0_2 <= 1
 constraint2_5693: Z_569_0_3 <= 1
Bounds
Binaries
 Z_377_0_0 Z_377_0_1 Z_377_0_2 Z_377_0_3 Z_377_0_4 Z_443_0_0 Z_443_0_1
 Z_443_0_2 Z_443_0_3 Z_443_0_4 Z_523_1_0 Z_523_1_1 Z_523_1_2 Z_523_1_3
 Z_523_1_4 Z_523_3_0 Z_523_3_1 Z_523_3_2 Z_523_3_3 Z_523_3_4 Z_523_2_0
 Z_523_2_1 Z_523_2_2 Z_523_2_3 Z_523_2_4 Z_523_0_0 Z_523_0_1 Z_523_0_2
 Z_523_0_3 Z_523_0_4 Z_746_0_0 Z_746_0_1 Z_746_0_2 Z_746_0_3 Z_746_0_4
 Z_605_3_0 Z_605_3_1 Z_605_3_2 Z_605_3_3 Z_605_3_4 Z_605_2_0 Z_605_2_1
 Z_605_2_2 Z_605_2_3 Z_605_2_4 Z_605_1_0 Z_605_1_1 Z_605_1_2 Z_605_1_3
 Z_605_1_4 Z_605_5_0 Z_605_5_1 Z_605_5_2 Z_605_5_3 Z_605_5_4 Z_605_0_0
 Z_605_0_1 Z_605_0_2 Z_605_0_3 Z_605_0_4 Z_605_4_0 Z_605_4_1 Z_605_4_2
 Z_605_4_3 Z_605_4_4 Z_383_1_0 Z_383_1_1 Z_383_1_2 Z_383_1_3 Z_383_1_4
 Z_383_3_0 Z_383_3_1 Z_383_3_2 Z_383_3_3 Z_383_3_4 Z_383_2_0 Z_383_2_1
 Z_383_2_2 Z_383_2_3 Z_383_2_4 Z_262_0_0 Z_262_0_1 Z_262_0_2 Z_262_0_3
 Z_262_0_4 Z_472_0_0 Z_472_0_1 Z_472_0_2 Z_472_0_3 Z_472_0_4 Z_8_0_0
 Z_8_0_1 Z_8_0_2 Z_8_0_3 Z_8_0_4 Z_569_0_0 Z_569_0_1 Z_569_0_2 Z_569_0_3
 Z_569_0_4
End
