output/hibernation_ilp.mps
NAME hibernation_srl_ilp
* Max problem is converted into Min one
ROWS
 N  OBJ
 L  constraint1_3770
 L  constraint1_4430
 L  constraint1_5231
 L  constraint1_5233
 L  constraint1_5232
 L  constraint1_5230
 L  constraint1_7460
 L  constraint1_6053
 L  constraint1_6052
 L  constraint1_6051
 L  constraint1_6055
 L  constraint1_6050
 L  constraint1_6054
 L  constraint1_3831
 L  constraint1_3833
 L  constraint1_3832
 L  constraint1_2620
 L  constraint1_4720
 L  constraint1_80
 L  constraint1_5690
 L  constraint2_3770
 L  constraint2_3771
 L  constraint2_3772
 L  constraint2_3773
 L  constraint2_4430
 L  constraint2_4431
 L  constraint2_4432
 L  constraint2_4433
 L  constraint2_5230
 L  constraint2_5231
 L  constraint2_5232
 L  constraint2_5233
 L  constraint2_7460
 L  constraint2_7461
 L  constraint2_7462
 L  constraint2_7463
 L  constraint2_6050
 L  constraint2_6051
 L  constraint2_6052
 L  constraint2_6053
 L  constraint2_3830
 L  constraint2_3831
 L  constraint2_3832
 L  constraint2_3833
 L  constraint2_2620
 L  constraint2_2621
 L  constraint2_2622
 L  constraint2_2623
 L  constraint2_7070
 L  constraint2_7071
 L  constraint2_7072
 L  constraint2_7073
 L  constraint2_4720
 L  constraint2_4721
 L  constraint2_4722
 L  constraint2_4723
 L  constraint2_80
 L  constraint2_81
 L  constraint2_82
 L  constraint2_83
 L  constraint2_5690
 L  constraint2_5691
 L  constraint2_5692
 L  constraint2_5693
COLUMNS
    MARKER    'MARKER'                 'INTORG'
    Z_377_0_0  OBJ       -1.4811220229115426e-02
    Z_377_0_0  constraint1_3770  1
    Z_377_0_0  constraint2_3770  1
    Z_377_0_1  OBJ       -6.2740439350558730e-01
    Z_377_0_1  constraint1_3770  1
    Z_377_0_1  constraint2_3771  1
    Z_377_0_2  OBJ       -6.2185082918586924e-04
    Z_377_0_2  constraint1_3770  1
    Z_377_0_2  constraint2_3772  1
    Z_377_0_3  OBJ       -1.0453055600804390e-02
    Z_377_0_3  constraint1_3770  1
    Z_377_0_3  constraint2_3773  1
    Z_377_0_4  OBJ       -2.4670947983530703e-01
    Z_377_0_4  constraint1_3770  1
    Z_443_0_0  OBJ       -1.6363597084730050e-02
    Z_443_0_0  constraint1_4430  1
    Z_443_0_0  constraint2_4430  1
    Z_443_0_1  OBJ       -1.3076408818386107e-01
    Z_443_0_1  constraint1_4430  1
    Z_443_0_1  constraint2_4431  1
    Z_443_0_2  OBJ       -7.0433279115239035e-03
    Z_443_0_2  constraint1_4430  1
    Z_443_0_2  constraint2_4432  1
    Z_443_0_3  OBJ       -3.7948462418471392e-02
    Z_443_0_3  constraint1_4430  1
    Z_443_0_3  constraint2_4433  1
    Z_443_0_4  OBJ       -7.0788052440141358e-01
    Z_443_0_4  constraint1_4430  1
    Z_523_1_0  OBJ       -6.2386882822167958e-04
    Z_523_1_0  constraint1_5231  1
    Z_523_1_0  constraint2_5230  1
    Z_523_1_1  OBJ       -4.9191671546471938e-03
    Z_523_1_1  constraint1_5231  1
    Z_523_1_1  constraint2_5231  1
    Z_523_1_2  OBJ       -1.1247525913433457e-01
    Z_523_1_2  constraint1_5231  1
    Z_523_1_2  constraint2_5232  1
    Z_523_1_3  OBJ       -1.5404976387409879e-02
    Z_523_1_3  constraint1_5231  1
    Z_523_1_3  constraint2_5233  1
    Z_523_1_4  OBJ       -7.6657672849538672e-01
    Z_523_1_4  constraint1_5231  1
    Z_523_3_0  OBJ       -7.6780991921147901e-02
    Z_523_3_0  constraint1_5233  1
    Z_523_3_0  constraint2_5230  1
    Z_523_3_1  OBJ       -1.4318709393461238e-01
    Z_523_3_1  constraint1_5233  1
    Z_523_3_1  constraint2_5231  1
    Z_523_3_2  OBJ       -4.6175664756597179e-02
    Z_523_3_2  constraint1_5233  1
    Z_523_3_2  constraint2_5232  1
    Z_523_3_3  OBJ       -2.9922218679254906e-02
    Z_523_3_3  constraint1_5233  1
    Z_523_3_3  constraint2_5233  1
    Z_523_3_4  OBJ       -6.0393403070838780e-01
    Z_523_3_4  constraint1_5233  1
    Z_523_2_0  OBJ       -1.6228800170134994e-02
    Z_523_2_0  constraint1_5232  1
    Z_523_2_0  constraint2_5230  1
    Z_523_2_1  OBJ       -2.1898678156249135e-01
    Z_523_2_1  constraint1_5232  1
    Z_523_2_1  constraint2_5231  1
    Z_523_2_2  OBJ       -2.3660432825191337e-02
    Z_523_2_2  constraint1_5232  1
    Z_523_2_2  constraint2_5232  1
    Z_523_2_3  OBJ       -2.5136322104980000e-02
    Z_523_2_3  constraint1_5232  1
    Z_523_2_3  constraint2_5233  1
    Z_523_2_4  OBJ       -6.1598766333720234e-01
    Z_523_2_4  constraint1_5232  1
    Z_523_0_0  OBJ       -1.0438824573237271e-02
    Z_523_0_0  constraint1_5230  1
    Z_523_0_0  constraint2_5230  1
    Z_523_0_1  OBJ       -4.7581793952857254e-01
    Z_523_0_1  constraint1_5230  1
    Z_523_0_1  constraint2_5231  1
    Z_523_0_2  OBJ       -1.8331623825685091e-03
    Z_523_0_2  constraint1_5230  1
    Z_523_0_2  constraint2_5232  1
    Z_523_0_3  OBJ       -1.4067075630206621e-02
    Z_523_0_3  constraint1_5230  1
    Z_523_0_3  constraint2_5233  1
    Z_523_0_4  OBJ       -3.9784299788541516e-01
    Z_523_0_4  constraint1_5230  1
    Z_746_0_0  OBJ       -4.5616443435771966e-05
    Z_746_0_0  constraint1_7460  1
    Z_746_0_0  constraint2_7460  1
    Z_746_0_1  OBJ       -2.9991224958676823e-03
    Z_746_0_1  constraint1_7460  1
    Z_746_0_1  constraint2_7461  1
    Z_746_0_2  OBJ       -6.1250807538939141e-02
    Z_746_0_2  constraint1_7460  1
    Z_746_0_2  constraint2_7462  1
    Z_746_0_3  OBJ       -7.9837521137117817e-01
    Z_746_0_3  constraint1_7460  1
    Z_746_0_3  constraint2_7463  1
    Z_746_0_4  OBJ       -3.7329242150579305e-02
    Z_746_0_4  constraint1_7460  1
    Z_605_3_0  OBJ       -2.2864781991883436e-04
    Z_605_3_0  constraint1_6053  1
    Z_605_3_0  constraint2_6050  1
    Z_605_3_1  OBJ       -3.7288880104318161e-03
    Z_605_3_1  constraint1_6053  1
    Z_605_3_1  constraint2_6051  1
    Z_605_3_2  OBJ       -7.1798558818373784e-02
    Z_605_3_2  constraint1_6053  1
    Z_605_3_2  constraint2_6052  1
    Z_605_3_3  OBJ       -1.4105836125296721e-03
    Z_605_3_3  constraint1_6053  1
    Z_605_3_3  constraint2_6053  1
    Z_605_3_4  OBJ       -8.2283332173874590e-01
    Z_605_3_4  constraint1_6053  1
    Z_605_2_0  OBJ       -7.1493411336398041e-03
    Z_605_2_0  constraint1_6052  1
    Z_605_2_0  constraint2_6050  1
    Z_605_2_1  OBJ       -6.2377021881711830e-03
    Z_605_2_1  constraint1_6052  1
    Z_605_2_1  constraint2_6051  1
    Z_605_2_2  OBJ       -2.8559695349810588e-01
    Z_605_2_2  constraint1_6052  1
    Z_605_2_2  constraint2_6052  1
    Z_605_2_3  OBJ       -4.2710664830893736e-03
    Z_605_2_3  constraint1_6052  1
    Z_605_2_3  constraint2_6053  1
    Z_605_2_4  OBJ       -5.9674493669699380e-01
    Z_605_2_4  constraint1_6052  1
    Z_605_1_0  OBJ       -9.5609004151765795e-04
    Z_605_1_0  constraint1_6051  1
    Z_605_1_0  constraint2_6050  1
    Z_605_1_1  OBJ       -1.1509547016235041e-03
    Z_605_1_1  constraint1_6051  1
    Z_605_1_1  constraint2_6051  1
    Z_605_1_2  OBJ       -7.3537950027662419e-03
    Z_605_1_2  constraint1_6051  1
    Z_605_1_2  constraint2_6052  1
    Z_605_1_3  OBJ       -3.5772805612652218e-03
    Z_605_1_3  constraint1_6051  1
    Z_605_1_3  constraint2_6053  1
    Z_605_1_4  OBJ       -8.8696187969282736e-01
    Z_605_1_4  constraint1_6051  1
    Z_605_5_0  OBJ       -2.1255763099339006e-01
    Z_605_5_0  constraint1_6055  1
    Z_605_5_0  constraint2_6050  1
    Z_605_5_1  OBJ       -8.4056026193327443e-02
    Z_605_5_1  constraint1_6055  1
    Z_605_5_1  constraint2_6051  1
    Z_605_5_2  OBJ       -1.3115873373970570e-02
    Z_605_5_2  constraint1_6055  1
    Z_605_5_2  constraint2_6052  1
    Z_605_5_3  OBJ       -6.1143589810151733e-04
    Z_605_5_3  constraint1_6055  1
    Z_605_5_3  constraint2_6053  1
    Z_605_5_4  OBJ       -5.8965903354121052e-01
    Z_605_5_4  constraint1_6055  1
    Z_605_0_0  OBJ       -9.2130020412875945e-03
    Z_605_0_0  constraint1_6050  1
    Z_605_0_0  constraint2_6050  1
    Z_605_0_1  OBJ       -1.0197468065384799e-01
    Z_605_0_1  constraint1_6050  1
    Z_605_0_1  constraint2_6051  1
    Z_605_0_2  OBJ       -1.2918835130996819e-02
    Z_605_0_2  constraint1_6050  1
    Z_605_0_2  constraint2_6052  1
    Z_605_0_3  OBJ       -5.9261823993928257e-02
    Z_605_0_3  constraint1_6050  1
    Z_605_0_3  constraint2_6053  1
    Z_605_0_4  OBJ       -7.1663165817993946e-01
    Z_605_0_4  constraint1_6050  1
    Z_605_4_0  OBJ       -2.2864781991883436e-04
    Z_605_4_0  constraint1_6054  1
    Z_605_4_0  constraint2_6050  1
    Z_605_4_1  OBJ       -3.7288880104318161e-03
    Z_605_4_1  constraint1_6054  1
    Z_605_4_1  constraint2_6051  1
    Z_605_4_2  OBJ       -7.1798558818373784e-02
    Z_605_4_2  constraint1_6054  1
    Z_605_4_2  constraint2_6052  1
    Z_605_4_3  OBJ       -1.4105836125296721e-03
    Z_605_4_3  constraint1_6054  1
    Z_605_4_3  constraint2_6053  1
    Z_605_4_4  OBJ       -8.2283332173874590e-01
    Z_605_4_4  constraint1_6054  1
    Z_383_1_0  OBJ       -2.4269787692169646e-03
    Z_383_1_0  constraint1_3831  1
    Z_383_1_0  constraint2_3830  1
    Z_383_1_1  OBJ       -1.5689880246150534e-02
    Z_383_1_1  constraint1_3831  1
    Z_383_1_1  constraint2_3831  1
    Z_383_1_2  OBJ       -6.1143526702789788e-02
    Z_383_1_2  constraint1_3831  1
    Z_383_1_2  constraint2_3832  1
    Z_383_1_3  OBJ       -1.5372548275275488e-02
    Z_383_1_3  constraint1_3831  1
    Z_383_1_3  constraint2_3833  1
    Z_383_1_4  OBJ       -8.0536706600656727e-01
    Z_383_1_4  constraint1_3831  1
    Z_383_3_0  OBJ       -3.4791371412807872e-03
    Z_383_3_0  constraint1_3833  1
    Z_383_3_0  constraint2_3830  1
    Z_383_3_1  OBJ       -2.6862339353612902e-01
    Z_383_3_1  constraint1_3833  1
    Z_383_3_1  constraint2_3831  1
    Z_383_3_2  OBJ       -9.0647691928068632e-04
    Z_383_3_2  constraint1_3833  1
    Z_383_3_2  constraint2_3832  1
    Z_383_3_3  OBJ       -3.9283071164381766e-03
    Z_383_3_3  constraint1_3833  1
    Z_383_3_3  constraint2_3833  1
    Z_383_3_4  OBJ       -6.2306268528687136e-01
    Z_383_3_4  constraint1_3833  1
    Z_383_2_0  OBJ       -2.4269787692169646e-03
    Z_383_2_0  constraint1_3832  1
    Z_383_2_0  constraint2_3830  1
    Z_383_2_1  OBJ       -1.5689880246150534e-02
    Z_383_2_1  constraint1_3832  1
    Z_383_2_1  constraint2_3831  1
    Z_383_2_2  OBJ       -6.1143526702789788e-02
    Z_383_2_2  constraint1_3832  1
    Z_383_2_2  constraint2_3832  1
    Z_383_2_3  OBJ       -1.5372548275275488e-02
    Z_383_2_3  constraint1_3832  1
    Z_383_2_3  constraint2_3833  1
    Z_383_2_4  OBJ       -8.0536706600656727e-01
    Z_383_2_4  constraint1_3832  1
    Z_262_0_0  OBJ       -5.1426846610208724e-03
    Z_262_0_0  constraint1_2620  1
    Z_262_0_0  constraint2_2620  1
    Z_262_0_1  OBJ       -6.6799724192525933e-01
    Z_262_0_1  constraint1_2620  1
    Z_262_0_1  constraint2_2621  1
    Z_262_0_2  OBJ       -7.3411100142145302e-03
    Z_262_0_2  constraint1_2620  1
    Z_262_0_2  constraint2_2622  1
    Z_262_0_3  OBJ       -1.3105529753139729e-02
    Z_262_0_3  constraint1_2620  1
    Z_262_0_3  constraint2_2623  1
    Z_262_0_4  OBJ       -2.0641343364636544e-01
    Z_262_0_4  constraint1_2620  1
    Z_472_0_0  OBJ       -1.0705407605893528e-04
    Z_472_0_0  constraint1_4720  1
    Z_472_0_0  constraint2_4720  1
    Z_472_0_1  OBJ       -7.1256776893249276e-04
    Z_472_0_1  constraint1_4720  1
    Z_472_0_1  constraint2_4721  1
    Z_472_0_2  OBJ       -4.1908289275327464e-02
    Z_472_0_2  constraint1_4720  1
    Z_472_0_2  constraint2_4722  1
    Z_472_0_3  OBJ       -8.0547298195091599e-01
    Z_472_0_3  constraint1_4720  1
    Z_472_0_3  constraint2_4723  1
    Z_472_0_4  OBJ       -5.1799106928765104e-02
    Z_472_0_4  constraint1_4720  1
    Z_8_0_0   OBJ       -1.0588126845280199e-03
    Z_8_0_0   constraint1_80  1
    Z_8_0_0   constraint2_80  1
    Z_8_0_1   OBJ       -3.3585983328323615e-03
    Z_8_0_1   constraint1_80  1
    Z_8_0_1   constraint2_81  1
    Z_8_0_2   OBJ       -1.4667009175098442e-01
    Z_8_0_2   constraint1_80  1
    Z_8_0_2   constraint2_82  1
    Z_8_0_3   OBJ       -8.9302923292931810e-02
    Z_8_0_3   constraint1_80  1
    Z_8_0_3   constraint2_83  1
    Z_8_0_4   OBJ       -6.5960957393872333e-01
    Z_8_0_4   constraint1_80  1
    Z_569_0_0  OBJ       -1.2333915653450859e-02
    Z_569_0_0  constraint1_5690  1
    Z_569_0_0  constraint2_5690  1
    Z_569_0_1  OBJ       -8.0915110413149605e-01
    Z_569_0_1  constraint1_5690  1
    Z_569_0_1  constraint2_5691  1
    Z_569_0_2  OBJ       -2.5585776415882836e-03
    Z_569_0_2  constraint1_5690  1
    Z_569_0_2  constraint2_5692  1
    Z_569_0_3  OBJ       -5.2123103052540134e-03
    Z_569_0_3  constraint1_5690  1
    Z_569_0_3  constraint2_5693  1
    Z_569_0_4  OBJ       -7.0744092268210851e-02
    Z_569_0_4  constraint1_5690  1
    MARKER    'MARKER'                 'INTEND'
RHS
    RHS1      constraint1_3770  1
    RHS1      constraint1_4430  1
    RHS1      constraint1_5231  1
    RHS1      constraint1_5233  1
    RHS1      constraint1_5232  1
    RHS1      constraint1_5230  1
    RHS1      constraint1_7460  1
    RHS1      constraint1_6053  1
    RHS1      constraint1_6052  1
    RHS1      constraint1_6051  1
    RHS1      constraint1_6055  1
    RHS1      constraint1_6050  1
    RHS1      constraint1_6054  1
    RHS1      constraint1_3831  1
    RHS1      constraint1_3833  1
    RHS1      constraint1_3832  1
    RHS1      constraint1_2620  1
    RHS1      constraint1_4720  1
    RHS1      constraint1_80  1
    RHS1      constraint1_5690  1
    RHS1      constraint2_3770  1
    RHS1      constraint2_3771  1
    RHS1      constraint2_3772  1
    RHS1      constraint2_3773  1
    RHS1      constraint2_4430  1
    RHS1      constraint2_4431  1
    RHS1      constraint2_4432  1
    RHS1      constraint2_4433  1
    RHS1      constraint2_5230  1
    RHS1      constraint2_5231  1
    RHS1      constraint2_5232  1
    RHS1      constraint2_5233  1
    RHS1      constraint2_7460  1
    RHS1      constraint2_7461  1
    RHS1      constraint2_7462  1
    RHS1      constraint2_7463  1
    RHS1      constraint2_6050  1
    RHS1      constraint2_6051  1
    RHS1      constraint2_6052  1
    RHS1      constraint2_6053  1
    RHS1      constraint2_3830  1
    RHS1      constraint2_3831  1
    RHS1      constraint2_3832  1
    RHS1      constraint2_3833  1
    RHS1      constraint2_2620  1
    RHS1      constraint2_2621  1
    RHS1      constraint2_2622  1
    RHS1      constraint2_2623  1
    RHS1      constraint2_7070  1
    RHS1      constraint2_7071  1
    RHS1      constraint2_7072  1
    RHS1      constraint2_7073  1
    RHS1      constraint2_4720  1
    RHS1      constraint2_4721  1
    RHS1      constraint2_4722  1
    RHS1      constraint2_4723  1
    RHS1      constraint2_80  1
    RHS1      constraint2_81  1
    RHS1      constraint2_82  1
    RHS1      constraint2_83  1
    RHS1      constraint2_5690  1
    RHS1      constraint2_5691  1
    RHS1      constraint2_5692  1
    RHS1      constraint2_5693  1
BOUNDS
 UP BND1      Z_377_0_0  1
 UP BND1      Z_377_0_1  1
 UP BND1      Z_377_0_2  1
 UP BND1      Z_377_0_3  1
 UP BND1      Z_377_0_4  1
 UP BND1      Z_443_0_0  1
 UP BND1      Z_443_0_1  1
 UP BND1      Z_443_0_2  1
 UP BND1      Z_443_0_3  1
 UP BND1      Z_443_0_4  1
 UP BND1      Z_523_1_0  1
 UP BND1      Z_523_1_1  1
 UP BND1      Z_523_1_2  1
 UP BND1      Z_523_1_3  1
 UP BND1      Z_523_1_4  1
 UP BND1      Z_523_3_0  1
 UP BND1      Z_523_3_1  1
 UP BND1      Z_523_3_2  1
 UP BND1      Z_523_3_3  1
 UP BND1      Z_523_3_4  1
 UP BND1      Z_523_2_0  1
 UP BND1      Z_523_2_1  1
 UP BND1      Z_523_2_2  1
 UP BND1      Z_523_2_3  1
 UP BND1      Z_523_2_4  1
 UP BND1      Z_523_0_0  1
 UP BND1      Z_523_0_1  1
 UP BND1      Z_523_0_2  1
 UP BND1      Z_523_0_3  1
 UP BND1      Z_523_0_4  1
 UP BND1      Z_746_0_0  1
 UP BND1      Z_746_0_1  1
 UP BND1      Z_746_0_2  1
 UP BND1      Z_746_0_3  1
 UP BND1      Z_746_0_4  1
 UP BND1      Z_605_3_0  1
 UP BND1      Z_605_3_1  1
 UP BND1      Z_605_3_2  1
 UP BND1      Z_605_3_3  1
 UP BND1      Z_605_3_4  1
 UP BND1      Z_605_2_0  1
 UP BND1      Z_605_2_1  1
 UP BND1      Z_605_2_2  1
 UP BND1      Z_605_2_3  1
 UP BND1      Z_605_2_4  1
 UP BND1      Z_605_1_0  1
 UP BND1      Z_605_1_1  1
 UP BND1      Z_605_1_2  1
 UP BND1      Z_605_1_3  1
 UP BND1      Z_605_1_4  1
 UP BND1      Z_605_5_0  1
 UP BND1      Z_605_5_1  1
 UP BND1      Z_605_5_2  1
 UP BND1      Z_605_5_3  1
 UP BND1      Z_605_5_4  1
 UP BND1      Z_605_0_0  1
 UP BND1      Z_605_0_1  1
 UP BND1      Z_605_0_2  1
 UP BND1      Z_605_0_3  1
 UP BND1      Z_605_0_4  1
 UP BND1      Z_605_4_0  1
 UP BND1      Z_605_4_1  1
 UP BND1      Z_605_4_2  1
 UP BND1      Z_605_4_3  1
 UP BND1      Z_605_4_4  1
 UP BND1      Z_383_1_0  1
 UP BND1      Z_383_1_1  1
 UP BND1      Z_383_1_2  1
 UP BND1      Z_383_1_3  1
 UP BND1      Z_383_1_4  1
 UP BND1      Z_383_3_0  1
 UP BND1      Z_383_3_1  1
 UP BND1      Z_383_3_2  1
 UP BND1      Z_383_3_3  1
 UP BND1      Z_383_3_4  1
 UP BND1      Z_383_2_0  1
 UP BND1      Z_383_2_1  1
 UP BND1      Z_383_2_2  1
 UP BND1      Z_383_2_3  1
 UP BND1      Z_383_2_4  1
 UP BND1      Z_262_0_0  1
 UP BND1      Z_262_0_1  1
 UP BND1      Z_262_0_2  1
 UP BND1      Z_262_0_3  1
 UP BND1      Z_262_0_4  1
 UP BND1      Z_472_0_0  1
 UP BND1      Z_472_0_1  1
 UP BND1      Z_472_0_2  1
 UP BND1      Z_472_0_3  1
 UP BND1      Z_472_0_4  1
 UP BND1      Z_8_0_0   1
 UP BND1      Z_8_0_1   1
 UP BND1      Z_8_0_2   1
 UP BND1      Z_8_0_3   1
 UP BND1      Z_8_0_4   1
 UP BND1      Z_569_0_0  1
 UP BND1      Z_569_0_1  1
 UP BND1      Z_569_0_2  1
 UP BND1      Z_569_0_3  1
 UP BND1      Z_569_0_4  1
ENDATA
